110344
11,22,54,41,24,68,14,60,5,78,27,7,82,52,58,67,43,21,4,18,23,30,47,20,70,65,35,25,61,79,44,45,53,12,17,36,72,63,0,9,28,13,69,75,66,19,8,76,57,16,73,31,39,10,15,32,26,6,55,50,71,46,59,80,42,1,29,34,37,74,81,64,49,3,62,38,51,40,77,33,48,56,2
